(set-info :smt-lib-version 2.6)
(set-logic LRA)
(set-info :source |
   Monniaux, David; Quantifier Elimination by Lazy Model Enumeration, CAV 2010
|)
(set-info :category "random")
; ./Mjollnir_examples/B1/formula_039.m
(set-info :status unsat)
(assert
 (forall ((|v9:0| Real) )(exists ((|v8:1| Real) )(forall ((|v7:2| Real) )(exists ((|v6:3| Real) )(forall ((|v5:4| Real) )(exists ((|v4:5| Real) )(forall ((|v3:6| Real) )(exists ((|v2:7| Real) )(forall ((|v1:8| Real) )(exists ((|v0:9| Real) )(let ((?x205 (+ (+ (* (- 7) |v7:2|) (* 12 |v6:3|)) (* 5 |v1:8|))))
(let ((?x192 (+ (+ (* 9 |v5:4|) (* 18 |v5:4|)) (* 4 |v4:5|))))
(let ((?x32 (- 1)))
(let ((?x184 (+ (+ (* (- 18) |v2:7|) (* 6 |v0:9|)) (* (- 8) |v9:0|))))
(let ((?x177 (+ (+ (* 19 |v5:4|) (* 6 |v2:7|)) (* 16 |v9:0|))))
(let ((?x63 16))
(let ((?x171 (+ (+ (* (- 20) |v0:9|) (* 9 |v4:5|)) (* (- 11) |v8:1|))))
(let (($x195 (or (and (<= ?x171 ?x63) (<= ?x177 (- 11))) (and (<= ?x184 ?x32) (<= ?x192 10)))))
(let ((?x158 (+ (+ (* (- 16) |v3:6|) (* 11 |v5:4|)) (* (- 16) |v5:4|))))
(let ((?x151 (- 16)))
(let ((?x71 (* ?x32 |v2:7|)))
(let (($x152 (<= (+ (+ (* (- 8) |v0:9|) (* 4 |v8:1|)) ?x71) ?x151)))
(let ((?x101 (* 10 |v9:0|)))
(let (($x142 (<= (+ (+ (* 4 |v9:0|) (* ?x32 |v6:3|)) ?x101) 17)))
(let ((?x134 (+ (+ (* (- 9) |v4:5|) (* (- 13) |v9:0|)) (* 6 |v5:4|))))
(let (($x162 (or (or (<= ?x134 (- 4)) $x142) (and $x152 (<= ?x158 3)))))
(let ((?x121 (+ (+ (* (- 15) |v9:0|) (* (- 20) |v9:0|)) (* 6 |v4:5|))))
(let ((?x40 (- 13)))
(let (($x109 (<= (+ (+ ?x101 (* 13 |v2:7|)) (* (- 3) |v7:2|)) ?x40)))
(let ((?x95 (+ (+ (* 4 |v6:3|) (* 19 |v3:6|)) (* (- 18) |v1:8|))))
(let ((?x73 11))
(let (($x85 (<= (+ (+ (* 20 |v5:4|) (* ?x40 |v2:7|)) (* ?x73 |v3:6|)) ?x73)))
(let (($x125 (and (and $x85 (<= ?x95 (- 10))) (or $x109 (<= ?x121 (- 4))))))
(let ((?x58 (+ (+ (* 7 |v9:0|) (* (- 17) |v5:4|)) (* (- 17) |v8:1|))))
(let (($x75 (and (<= ?x58 (- 14)) (<= (+ (+ (* ?x63 |v6:3|) (* 0 |v0:9|)) ?x71) ?x73))))
(let ((?x45 (+ (+ (* (- 5) |v9:0|) (* ?x40 |v8:1|)) (* 15 |v5:4|))))
(let ((?x31 (+ (+ (* 4 |v1:8|) (* 14 |v1:8|)) (* (- 7) |v6:3|))))
(let ((?x19 (+ (+ (* 14 |v1:8|) (* 15 |v4:5|)) (* 14 |v8:1|))))
(let (($x127 (or (<= ?x19 (- 19)) (or (or (and (<= ?x31 ?x32) (<= ?x45 13)) $x75) $x125))))
(or $x127 (and (and $x162 $x195) (<= ?x205 20)))))))))))))))))))))))))))))))))
)
)
)
)
)
)
)
)
)
)
(check-sat)
(exit)

